* #variable= 91 #constraint= 481 #product= 147 sizeproduct= 294
min: -1 x1 +2 x1 x81 -3 x81 +2 x2 x56 -2 x2 x86 -4 x86 -2 x3 x54 +3 x54 -2 x3 x56 +2 x3 x83 -4 x83 +2 x3 x86 -2 x4 x54 +2 x4 -2 x4 x56 -2 x4 x71 +4 x71 -2 x4 x72 +9 x72 +2 x4 x84 -3 x84 +2 x4 x87 -8 x87 +2 x5 x50 -1 x5 -7 x50 -2 x5 x60 -3 x60 +2 x5 x62 -6 x62 -2 x5 x74 +6 x74 +2 x5 x90 -6 x90 +2 x6 x81 -3 x6 +2 x6 x83 +2 x6 x86 +2 x7 x56 -1 x7 +2 x7 x60 -2 x7 x86 -2 x8 x71 -2 x8 x72 +2 x8 x83 +2 x8 x86 +2 x9 x50 -1 x9 +2 x9 x60 -2 x9 x74 -2 x10 x54 +2 x10 -2 x10 x56 -2 x11 x60 +1 x11 -2 x12 x71 -1 x12 -2 x12 x72 +2 x12 x81 +2 x12 x83 +2 x12 x86 +2 x13 x50 -1 x13 +2 x13 x56 +2 x13 x60 -2 x13 x74 -2 x13 x86 -2 x14 x65 +2 x14 +1 x65 -2 x14 x66 +4 x66 -2 x14 x71 -2 x14 x72 +2 x14 x84 +2 x14 x87 +2 x15 x47 -2 x15 -3 x47 +2 x15 x50 +2 x15 x62 -2 x15 x68 +4 x68 -2 x15 x74 +2 x15 x90 +2 x16 x84 -2 x16 +2 x16 x87 +2 x17 x62 -2 x17 +2 x17 x90 -2 x18 x56 +1 x18 -2 x18 x72 +2 x18 x87 +2 x19 x86 -1 x19 -2 x20 x72 +2 x20 x86 -2 x21 x56 +1 x21 -2 x22 x72 +2 x22 x86 -2 x23 x66 +1 x23 -2 x23 x72 +2 x23 x87 +2 x24 x87 -1 x24 +2 x25 x56 -2 x25 +2 x25 x60 +2 x25 x72 +2 x25 x74 -2 x25 x87 -2 x25 x90 +2 x26 x50 -1 x26 +2 x26 x60 +2 x26 x74 -2 x26 x75 -4 x75 -2 x26 x90 -2 x27 x50 +2 x27 -2 x27 x62 +2 x28 x50 -2 x28 +2 x28 x56 +2 x28 x60 +2 x28 x72 +2 x28 x74 -2 x28 x75 -2 x28 x87 -2 x28 x90 +2 x29 x47 -1 x29 +2 x29 x50 +2 x29 x62 -2 x29 x63 +3 x63 -2 x29 x69 +2 x30 x62 -2 x30 +2 x30 x75 -2 x31 x72 +1 x31 -2 x31 x74 +2 x31 x86 -2 x32 x56 +2 x32 -2 x32 x60 -2 x33 x72 +2 x33 -2 x33 x74 -2 x34 x66 +2 x34 -2 x34 x68 -2 x34 x72 -2 x34 x74 +2 x34 x87 +2 x34 x90 +2 x35 x87 -2 x35 +2 x35 x90 -2 x36 x50 +2 x36 -2 x36 x60 +2 x37 x72 -2 x37 x86 -2 x38 x63 +1 x38 -2 x38 x68 -2 x38 x74 +2 x38 x75 +2 x38 x90 +2 x39 x75 -2 x39 +2 x39 x90 +2 x40 x50 -3 x40 +2 x40 x56 +2 x40 x60 +2 x41 x47 -3 x41 +2 x41 x50 +2 x41 x62 +2 x42 x62 -1 x42 -2 x43 x63 +2 x43 -2 x43 x66 -2 x43 x68 -2 x43 x72 -2 x43 x74 +2 x43 x75 +2 x43 x87 +2 x43 x90 +2 x44 x75 -3 x44 +2 x44 x87 +2 x44 x90 +2 x45 x69 -2 x45 +2 x45 x75 +85 x91 ;
+1 x1 -1 x2 -1 x3 >= -1 ;
-1 x3 +1 x4 -1 x5 >= -1 ;
-1 x3 +1 x6 -1 x7 >= -1 ;
-1 x3 +1 x8 -1 x9 >= -1 ;
-1 x3 +1 x10 -1 x11 >= -1 ;
-1 x3 +1 x12 -1 x13 >= -1 ;
-1 x3 +1 x14 -1 x15 >= -1 ;
-1 x3 +1 x16 -1 x17 >= -1 ;
-1 x1 +1 x4 -1 x18 >= -1 ;
-1 x1 +1 x6 -1 x19 >= -1 ;
-1 x1 +1 x8 -1 x20 >= -1 ;
-1 x1 +1 x10 -1 x21 >= -1 ;
-1 x1 +1 x12 -1 x22 >= -1 ;
-1 x1 +1 x14 -1 x23 >= -1 ;
-1 x1 +1 x16 -1 x24 >= -1 ;
-1 x4 +1 x6 -1 x25 >= -1 ;
-1 x4 +1 x8 -1 x26 >= -1 ;
-1 x4 +1 x10 -1 x27 >= -1 ;
-1 x4 +1 x12 -1 x28 >= -1 ;
-1 x4 +1 x14 -1 x29 >= -1 ;
-1 x4 +1 x16 -1 x30 >= -1 ;
-1 x6 +1 x8 -1 x31 >= -1 ;
-1 x6 +1 x10 -1 x32 >= -1 ;
-1 x6 +1 x12 -1 x33 >= -1 ;
-1 x6 +1 x14 -1 x34 >= -1 ;
-1 x6 +1 x16 -1 x35 >= -1 ;
-1 x8 +1 x10 -1 x36 >= -1 ;
-1 x8 +1 x12 -1 x37 >= -1 ;
-1 x8 +1 x14 -1 x38 >= -1 ;
-1 x8 +1 x16 -1 x39 >= -1 ;
-1 x10 +1 x12 -1 x40 >= -1 ;
-1 x10 +1 x14 -1 x41 >= -1 ;
-1 x10 +1 x16 -1 x42 >= -1 ;
-1 x12 +1 x14 -1 x43 >= -1 ;
-1 x12 +1 x16 -1 x44 >= -1 ;
-1 x14 +1 x16 -1 x45 >= -1 ;
-1 x2 +1 x5 -1 x18 >= -1 ;
-1 x2 +1 x7 -1 x19 >= -1 ;
-1 x2 +1 x9 -1 x20 >= -1 ;
-1 x2 +1 x11 -1 x21 >= -1 ;
-1 x2 +1 x13 -1 x22 >= -1 ;
-1 x2 +1 x15 -1 x23 >= -1 ;
-1 x2 +1 x17 -1 x24 >= -1 ;
-1 x5 +1 x7 -1 x25 >= -1 ;
-1 x5 +1 x9 -1 x26 >= -1 ;
-1 x5 +1 x11 -1 x27 >= -1 ;
-1 x5 +1 x13 -1 x28 >= -1 ;
-1 x5 +1 x15 -1 x29 >= -1 ;
-1 x5 +1 x17 -1 x30 >= -1 ;
-1 x7 +1 x9 -1 x31 >= -1 ;
-1 x7 +1 x11 -1 x32 >= -1 ;
-1 x7 +1 x13 -1 x33 >= -1 ;
-1 x7 +1 x15 -1 x34 >= -1 ;
-1 x7 +1 x17 -1 x35 >= -1 ;
-1 x9 +1 x11 -1 x36 >= -1 ;
-1 x9 +1 x13 -1 x37 >= -1 ;
-1 x9 +1 x15 -1 x38 >= -1 ;
-1 x9 +1 x17 -1 x39 >= -1 ;
-1 x11 +1 x13 -1 x40 >= -1 ;
-1 x11 +1 x15 -1 x41 >= -1 ;
-1 x11 +1 x17 -1 x42 >= -1 ;
-1 x13 +1 x15 -1 x43 >= -1 ;
-1 x13 +1 x17 -1 x44 >= -1 ;
-1 x15 +1 x17 -1 x45 >= -1 ;
-1 x18 +1 x19 -1 x25 >= -1 ;
-1 x18 +1 x20 -1 x26 >= -1 ;
-1 x18 +1 x21 -1 x27 >= -1 ;
-1 x18 +1 x22 -1 x28 >= -1 ;
-1 x18 +1 x23 -1 x29 >= -1 ;
-1 x18 +1 x24 -1 x30 >= -1 ;
-1 x19 +1 x20 -1 x31 >= -1 ;
-1 x19 +1 x21 -1 x32 >= -1 ;
-1 x19 +1 x22 -1 x33 >= -1 ;
-1 x19 +1 x23 -1 x34 >= -1 ;
-1 x19 +1 x24 -1 x35 >= -1 ;
-1 x20 +1 x21 -1 x36 >= -1 ;
-1 x20 +1 x22 -1 x37 >= -1 ;
-1 x20 +1 x23 -1 x38 >= -1 ;
-1 x20 +1 x24 -1 x39 >= -1 ;
-1 x21 +1 x22 -1 x40 >= -1 ;
-1 x21 +1 x23 -1 x41 >= -1 ;
-1 x21 +1 x24 -1 x42 >= -1 ;
-1 x22 +1 x23 -1 x43 >= -1 ;
-1 x22 +1 x24 -1 x44 >= -1 ;
-1 x23 +1 x24 -1 x45 >= -1 ;
-1 x25 +1 x26 -1 x31 >= -1 ;
-1 x25 +1 x27 -1 x32 >= -1 ;
-1 x25 +1 x28 -1 x33 >= -1 ;
-1 x25 +1 x29 -1 x34 >= -1 ;
-1 x25 +1 x30 -1 x35 >= -1 ;
-1 x26 +1 x27 -1 x36 >= -1 ;
-1 x26 +1 x28 -1 x37 >= -1 ;
-1 x26 +1 x29 -1 x38 >= -1 ;
-1 x26 +1 x30 -1 x39 >= -1 ;
-1 x27 +1 x28 -1 x40 >= -1 ;
-1 x27 +1 x29 -1 x41 >= -1 ;
-1 x27 +1 x30 -1 x42 >= -1 ;
-1 x28 +1 x29 -1 x43 >= -1 ;
-1 x28 +1 x30 -1 x44 >= -1 ;
-1 x29 +1 x30 -1 x45 >= -1 ;
-1 x31 +1 x32 -1 x36 >= -1 ;
-1 x31 +1 x33 -1 x37 >= -1 ;
-1 x31 +1 x34 -1 x38 >= -1 ;
-1 x31 +1 x35 -1 x39 >= -1 ;
-1 x32 +1 x33 -1 x40 >= -1 ;
-1 x32 +1 x34 -1 x41 >= -1 ;
-1 x32 +1 x35 -1 x42 >= -1 ;
-1 x33 +1 x34 -1 x43 >= -1 ;
-1 x33 +1 x35 -1 x44 >= -1 ;
-1 x34 +1 x35 -1 x45 >= -1 ;
-1 x36 +1 x37 -1 x40 >= -1 ;
-1 x36 +1 x38 -1 x41 >= -1 ;
-1 x36 +1 x39 -1 x42 >= -1 ;
-1 x37 +1 x38 -1 x43 >= -1 ;
-1 x37 +1 x39 -1 x44 >= -1 ;
-1 x38 +1 x39 -1 x45 >= -1 ;
-1 x40 +1 x41 -1 x43 >= -1 ;
-1 x40 +1 x42 -1 x44 >= -1 ;
-1 x41 +1 x42 -1 x45 >= -1 ;
-1 x43 +1 x44 -1 x45 >= -1 ;
-1 x1 +1 x2 +1 x3 >= 0 ;
+1 x3 -1 x4 +1 x5 >= 0 ;
+1 x3 -1 x6 +1 x7 >= 0 ;
+1 x3 -1 x8 +1 x9 >= 0 ;
+1 x3 -1 x10 +1 x11 >= 0 ;
+1 x3 -1 x12 +1 x13 >= 0 ;
+1 x3 -1 x14 +1 x15 >= 0 ;
+1 x3 -1 x16 +1 x17 >= 0 ;
+1 x1 -1 x4 +1 x18 >= 0 ;
+1 x1 -1 x6 +1 x19 >= 0 ;
+1 x1 -1 x8 +1 x20 >= 0 ;
+1 x1 -1 x10 +1 x21 >= 0 ;
+1 x1 -1 x12 +1 x22 >= 0 ;
+1 x1 -1 x14 +1 x23 >= 0 ;
+1 x1 -1 x16 +1 x24 >= 0 ;
+1 x4 -1 x6 +1 x25 >= 0 ;
+1 x4 -1 x8 +1 x26 >= 0 ;
+1 x4 -1 x10 +1 x27 >= 0 ;
+1 x4 -1 x12 +1 x28 >= 0 ;
+1 x4 -1 x14 +1 x29 >= 0 ;
+1 x4 -1 x16 +1 x30 >= 0 ;
+1 x6 -1 x8 +1 x31 >= 0 ;
+1 x6 -1 x10 +1 x32 >= 0 ;
+1 x6 -1 x12 +1 x33 >= 0 ;
+1 x6 -1 x14 +1 x34 >= 0 ;
+1 x6 -1 x16 +1 x35 >= 0 ;
+1 x8 -1 x10 +1 x36 >= 0 ;
+1 x8 -1 x12 +1 x37 >= 0 ;
+1 x8 -1 x14 +1 x38 >= 0 ;
+1 x8 -1 x16 +1 x39 >= 0 ;
+1 x10 -1 x12 +1 x40 >= 0 ;
+1 x10 -1 x14 +1 x41 >= 0 ;
+1 x10 -1 x16 +1 x42 >= 0 ;
+1 x12 -1 x14 +1 x43 >= 0 ;
+1 x12 -1 x16 +1 x44 >= 0 ;
+1 x14 -1 x16 +1 x45 >= 0 ;
+1 x2 -1 x5 +1 x18 >= 0 ;
+1 x2 -1 x7 +1 x19 >= 0 ;
+1 x2 -1 x9 +1 x20 >= 0 ;
+1 x2 -1 x11 +1 x21 >= 0 ;
+1 x2 -1 x13 +1 x22 >= 0 ;
+1 x2 -1 x15 +1 x23 >= 0 ;
+1 x2 -1 x17 +1 x24 >= 0 ;
+1 x5 -1 x7 +1 x25 >= 0 ;
+1 x5 -1 x9 +1 x26 >= 0 ;
+1 x5 -1 x11 +1 x27 >= 0 ;
+1 x5 -1 x13 +1 x28 >= 0 ;
+1 x5 -1 x15 +1 x29 >= 0 ;
+1 x5 -1 x17 +1 x30 >= 0 ;
+1 x7 -1 x9 +1 x31 >= 0 ;
+1 x7 -1 x11 +1 x32 >= 0 ;
+1 x7 -1 x13 +1 x33 >= 0 ;
+1 x7 -1 x15 +1 x34 >= 0 ;
+1 x7 -1 x17 +1 x35 >= 0 ;
+1 x9 -1 x11 +1 x36 >= 0 ;
+1 x9 -1 x13 +1 x37 >= 0 ;
+1 x9 -1 x15 +1 x38 >= 0 ;
+1 x9 -1 x17 +1 x39 >= 0 ;
+1 x11 -1 x13 +1 x40 >= 0 ;
+1 x11 -1 x15 +1 x41 >= 0 ;
+1 x11 -1 x17 +1 x42 >= 0 ;
+1 x13 -1 x15 +1 x43 >= 0 ;
+1 x13 -1 x17 +1 x44 >= 0 ;
+1 x15 -1 x17 +1 x45 >= 0 ;
+1 x18 -1 x19 +1 x25 >= 0 ;
+1 x18 -1 x20 +1 x26 >= 0 ;
+1 x18 -1 x21 +1 x27 >= 0 ;
+1 x18 -1 x22 +1 x28 >= 0 ;
+1 x18 -1 x23 +1 x29 >= 0 ;
+1 x18 -1 x24 +1 x30 >= 0 ;
+1 x19 -1 x20 +1 x31 >= 0 ;
+1 x19 -1 x21 +1 x32 >= 0 ;
+1 x19 -1 x22 +1 x33 >= 0 ;
+1 x19 -1 x23 +1 x34 >= 0 ;
+1 x19 -1 x24 +1 x35 >= 0 ;
+1 x20 -1 x21 +1 x36 >= 0 ;
+1 x20 -1 x22 +1 x37 >= 0 ;
+1 x20 -1 x23 +1 x38 >= 0 ;
+1 x20 -1 x24 +1 x39 >= 0 ;
+1 x21 -1 x22 +1 x40 >= 0 ;
+1 x21 -1 x23 +1 x41 >= 0 ;
+1 x21 -1 x24 +1 x42 >= 0 ;
+1 x22 -1 x23 +1 x43 >= 0 ;
+1 x22 -1 x24 +1 x44 >= 0 ;
+1 x23 -1 x24 +1 x45 >= 0 ;
+1 x25 -1 x26 +1 x31 >= 0 ;
+1 x25 -1 x27 +1 x32 >= 0 ;
+1 x25 -1 x28 +1 x33 >= 0 ;
+1 x25 -1 x29 +1 x34 >= 0 ;
+1 x25 -1 x30 +1 x35 >= 0 ;
+1 x26 -1 x27 +1 x36 >= 0 ;
+1 x26 -1 x28 +1 x37 >= 0 ;
+1 x26 -1 x29 +1 x38 >= 0 ;
+1 x26 -1 x30 +1 x39 >= 0 ;
+1 x27 -1 x28 +1 x40 >= 0 ;
+1 x27 -1 x29 +1 x41 >= 0 ;
+1 x27 -1 x30 +1 x42 >= 0 ;
+1 x28 -1 x29 +1 x43 >= 0 ;
+1 x28 -1 x30 +1 x44 >= 0 ;
+1 x29 -1 x30 +1 x45 >= 0 ;
+1 x31 -1 x32 +1 x36 >= 0 ;
+1 x31 -1 x33 +1 x37 >= 0 ;
+1 x31 -1 x34 +1 x38 >= 0 ;
+1 x31 -1 x35 +1 x39 >= 0 ;
+1 x32 -1 x33 +1 x40 >= 0 ;
+1 x32 -1 x34 +1 x41 >= 0 ;
+1 x32 -1 x35 +1 x42 >= 0 ;
+1 x33 -1 x34 +1 x43 >= 0 ;
+1 x33 -1 x35 +1 x44 >= 0 ;
+1 x34 -1 x35 +1 x45 >= 0 ;
+1 x36 -1 x37 +1 x40 >= 0 ;
+1 x36 -1 x38 +1 x41 >= 0 ;
+1 x36 -1 x39 +1 x42 >= 0 ;
+1 x37 -1 x38 +1 x43 >= 0 ;
+1 x37 -1 x39 +1 x44 >= 0 ;
+1 x38 -1 x39 +1 x45 >= 0 ;
+1 x40 -1 x41 +1 x43 >= 0 ;
+1 x40 -1 x42 +1 x44 >= 0 ;
+1 x41 -1 x42 +1 x45 >= 0 ;
+1 x43 -1 x44 +1 x45 >= 0 ;
+1 x46 -1 x47 -1 x48 >= -1 ;
-1 x48 +1 x49 -1 x50 >= -1 ;
-1 x48 +1 x51 -1 x52 >= -1 ;
-1 x48 +1 x53 -1 x54 >= -1 ;
-1 x48 +1 x55 -1 x56 >= -1 ;
-1 x48 +1 x57 -1 x58 >= -1 ;
-1 x48 +1 x59 -1 x60 >= -1 ;
-1 x48 +1 x61 -1 x62 >= -1 ;
-1 x46 +1 x49 -1 x63 >= -1 ;
-1 x46 +1 x51 -1 x64 >= -1 ;
-1 x46 +1 x53 -1 x65 >= -1 ;
-1 x46 +1 x55 -1 x66 >= -1 ;
-1 x46 +1 x57 -1 x67 >= -1 ;
-1 x46 +1 x59 -1 x68 >= -1 ;
-1 x46 +1 x61 -1 x69 >= -1 ;
-1 x49 +1 x51 -1 x70 >= -1 ;
-1 x49 +1 x53 -1 x71 >= -1 ;
-1 x49 +1 x55 -1 x72 >= -1 ;
-1 x49 +1 x57 -1 x73 >= -1 ;
-1 x49 +1 x59 -1 x74 >= -1 ;
-1 x49 +1 x61 -1 x75 >= -1 ;
-1 x51 +1 x53 -1 x76 >= -1 ;
-1 x51 +1 x55 -1 x77 >= -1 ;
-1 x51 +1 x57 -1 x78 >= -1 ;
-1 x51 +1 x59 -1 x79 >= -1 ;
-1 x51 +1 x61 -1 x80 >= -1 ;
-1 x53 +1 x55 -1 x81 >= -1 ;
-1 x53 +1 x57 -1 x82 >= -1 ;
-1 x53 +1 x59 -1 x83 >= -1 ;
-1 x53 +1 x61 -1 x84 >= -1 ;
-1 x55 +1 x57 -1 x85 >= -1 ;
-1 x55 +1 x59 -1 x86 >= -1 ;
-1 x55 +1 x61 -1 x87 >= -1 ;
-1 x57 +1 x59 -1 x88 >= -1 ;
-1 x57 +1 x61 -1 x89 >= -1 ;
-1 x59 +1 x61 -1 x90 >= -1 ;
-1 x47 +1 x50 -1 x63 >= -1 ;
-1 x47 +1 x52 -1 x64 >= -1 ;
-1 x47 +1 x54 -1 x65 >= -1 ;
-1 x47 +1 x56 -1 x66 >= -1 ;
-1 x47 +1 x58 -1 x67 >= -1 ;
-1 x47 +1 x60 -1 x68 >= -1 ;
-1 x47 +1 x62 -1 x69 >= -1 ;
-1 x50 +1 x52 -1 x70 >= -1 ;
-1 x50 +1 x54 -1 x71 >= -1 ;
-1 x50 +1 x56 -1 x72 >= -1 ;
-1 x50 +1 x58 -1 x73 >= -1 ;
-1 x50 +1 x60 -1 x74 >= -1 ;
-1 x50 +1 x62 -1 x75 >= -1 ;
-1 x52 +1 x54 -1 x76 >= -1 ;
-1 x52 +1 x56 -1 x77 >= -1 ;
-1 x52 +1 x58 -1 x78 >= -1 ;
-1 x52 +1 x60 -1 x79 >= -1 ;
-1 x52 +1 x62 -1 x80 >= -1 ;
-1 x54 +1 x56 -1 x81 >= -1 ;
-1 x54 +1 x58 -1 x82 >= -1 ;
-1 x54 +1 x60 -1 x83 >= -1 ;
-1 x54 +1 x62 -1 x84 >= -1 ;
-1 x56 +1 x58 -1 x85 >= -1 ;
-1 x56 +1 x60 -1 x86 >= -1 ;
-1 x56 +1 x62 -1 x87 >= -1 ;
-1 x58 +1 x60 -1 x88 >= -1 ;
-1 x58 +1 x62 -1 x89 >= -1 ;
-1 x60 +1 x62 -1 x90 >= -1 ;
-1 x63 +1 x64 -1 x70 >= -1 ;
-1 x63 +1 x65 -1 x71 >= -1 ;
-1 x63 +1 x66 -1 x72 >= -1 ;
-1 x63 +1 x67 -1 x73 >= -1 ;
-1 x63 +1 x68 -1 x74 >= -1 ;
-1 x63 +1 x69 -1 x75 >= -1 ;
-1 x64 +1 x65 -1 x76 >= -1 ;
-1 x64 +1 x66 -1 x77 >= -1 ;
-1 x64 +1 x67 -1 x78 >= -1 ;
-1 x64 +1 x68 -1 x79 >= -1 ;
-1 x64 +1 x69 -1 x80 >= -1 ;
-1 x65 +1 x66 -1 x81 >= -1 ;
-1 x65 +1 x67 -1 x82 >= -1 ;
-1 x65 +1 x68 -1 x83 >= -1 ;
-1 x65 +1 x69 -1 x84 >= -1 ;
-1 x66 +1 x67 -1 x85 >= -1 ;
-1 x66 +1 x68 -1 x86 >= -1 ;
-1 x66 +1 x69 -1 x87 >= -1 ;
-1 x67 +1 x68 -1 x88 >= -1 ;
-1 x67 +1 x69 -1 x89 >= -1 ;
-1 x68 +1 x69 -1 x90 >= -1 ;
-1 x70 +1 x71 -1 x76 >= -1 ;
-1 x70 +1 x72 -1 x77 >= -1 ;
-1 x70 +1 x73 -1 x78 >= -1 ;
-1 x70 +1 x74 -1 x79 >= -1 ;
-1 x70 +1 x75 -1 x80 >= -1 ;
-1 x71 +1 x72 -1 x81 >= -1 ;
-1 x71 +1 x73 -1 x82 >= -1 ;
-1 x71 +1 x74 -1 x83 >= -1 ;
-1 x71 +1 x75 -1 x84 >= -1 ;
-1 x72 +1 x73 -1 x85 >= -1 ;
-1 x72 +1 x74 -1 x86 >= -1 ;
-1 x72 +1 x75 -1 x87 >= -1 ;
-1 x73 +1 x74 -1 x88 >= -1 ;
-1 x73 +1 x75 -1 x89 >= -1 ;
-1 x74 +1 x75 -1 x90 >= -1 ;
-1 x76 +1 x77 -1 x81 >= -1 ;
-1 x76 +1 x78 -1 x82 >= -1 ;
-1 x76 +1 x79 -1 x83 >= -1 ;
-1 x76 +1 x80 -1 x84 >= -1 ;
-1 x77 +1 x78 -1 x85 >= -1 ;
-1 x77 +1 x79 -1 x86 >= -1 ;
-1 x77 +1 x80 -1 x87 >= -1 ;
-1 x78 +1 x79 -1 x88 >= -1 ;
-1 x78 +1 x80 -1 x89 >= -1 ;
-1 x79 +1 x80 -1 x90 >= -1 ;
-1 x81 +1 x82 -1 x85 >= -1 ;
-1 x81 +1 x83 -1 x86 >= -1 ;
-1 x81 +1 x84 -1 x87 >= -1 ;
-1 x82 +1 x83 -1 x88 >= -1 ;
-1 x82 +1 x84 -1 x89 >= -1 ;
-1 x83 +1 x84 -1 x90 >= -1 ;
-1 x85 +1 x86 -1 x88 >= -1 ;
-1 x85 +1 x87 -1 x89 >= -1 ;
-1 x86 +1 x87 -1 x90 >= -1 ;
-1 x88 +1 x89 -1 x90 >= -1 ;
-1 x46 +1 x47 +1 x48 >= 0 ;
+1 x48 -1 x49 +1 x50 >= 0 ;
+1 x48 -1 x51 +1 x52 >= 0 ;
+1 x48 -1 x53 +1 x54 >= 0 ;
+1 x48 -1 x55 +1 x56 >= 0 ;
+1 x48 -1 x57 +1 x58 >= 0 ;
+1 x48 -1 x59 +1 x60 >= 0 ;
+1 x48 -1 x61 +1 x62 >= 0 ;
+1 x46 -1 x49 +1 x63 >= 0 ;
+1 x46 -1 x51 +1 x64 >= 0 ;
+1 x46 -1 x53 +1 x65 >= 0 ;
+1 x46 -1 x55 +1 x66 >= 0 ;
+1 x46 -1 x57 +1 x67 >= 0 ;
+1 x46 -1 x59 +1 x68 >= 0 ;
+1 x46 -1 x61 +1 x69 >= 0 ;
+1 x49 -1 x51 +1 x70 >= 0 ;
+1 x49 -1 x53 +1 x71 >= 0 ;
+1 x49 -1 x55 +1 x72 >= 0 ;
+1 x49 -1 x57 +1 x73 >= 0 ;
+1 x49 -1 x59 +1 x74 >= 0 ;
+1 x49 -1 x61 +1 x75 >= 0 ;
+1 x51 -1 x53 +1 x76 >= 0 ;
+1 x51 -1 x55 +1 x77 >= 0 ;
+1 x51 -1 x57 +1 x78 >= 0 ;
+1 x51 -1 x59 +1 x79 >= 0 ;
+1 x51 -1 x61 +1 x80 >= 0 ;
+1 x53 -1 x55 +1 x81 >= 0 ;
+1 x53 -1 x57 +1 x82 >= 0 ;
+1 x53 -1 x59 +1 x83 >= 0 ;
+1 x53 -1 x61 +1 x84 >= 0 ;
+1 x55 -1 x57 +1 x85 >= 0 ;
+1 x55 -1 x59 +1 x86 >= 0 ;
+1 x55 -1 x61 +1 x87 >= 0 ;
+1 x57 -1 x59 +1 x88 >= 0 ;
+1 x57 -1 x61 +1 x89 >= 0 ;
+1 x59 -1 x61 +1 x90 >= 0 ;
+1 x47 -1 x50 +1 x63 >= 0 ;
+1 x47 -1 x52 +1 x64 >= 0 ;
+1 x47 -1 x54 +1 x65 >= 0 ;
+1 x47 -1 x56 +1 x66 >= 0 ;
+1 x47 -1 x58 +1 x67 >= 0 ;
+1 x47 -1 x60 +1 x68 >= 0 ;
+1 x47 -1 x62 +1 x69 >= 0 ;
+1 x50 -1 x52 +1 x70 >= 0 ;
+1 x50 -1 x54 +1 x71 >= 0 ;
+1 x50 -1 x56 +1 x72 >= 0 ;
+1 x50 -1 x58 +1 x73 >= 0 ;
+1 x50 -1 x60 +1 x74 >= 0 ;
+1 x50 -1 x62 +1 x75 >= 0 ;
+1 x52 -1 x54 +1 x76 >= 0 ;
+1 x52 -1 x56 +1 x77 >= 0 ;
+1 x52 -1 x58 +1 x78 >= 0 ;
+1 x52 -1 x60 +1 x79 >= 0 ;
+1 x52 -1 x62 +1 x80 >= 0 ;
+1 x54 -1 x56 +1 x81 >= 0 ;
+1 x54 -1 x58 +1 x82 >= 0 ;
+1 x54 -1 x60 +1 x83 >= 0 ;
+1 x54 -1 x62 +1 x84 >= 0 ;
+1 x56 -1 x58 +1 x85 >= 0 ;
+1 x56 -1 x60 +1 x86 >= 0 ;
+1 x56 -1 x62 +1 x87 >= 0 ;
+1 x58 -1 x60 +1 x88 >= 0 ;
+1 x58 -1 x62 +1 x89 >= 0 ;
+1 x60 -1 x62 +1 x90 >= 0 ;
+1 x63 -1 x64 +1 x70 >= 0 ;
+1 x63 -1 x65 +1 x71 >= 0 ;
+1 x63 -1 x66 +1 x72 >= 0 ;
+1 x63 -1 x67 +1 x73 >= 0 ;
+1 x63 -1 x68 +1 x74 >= 0 ;
+1 x63 -1 x69 +1 x75 >= 0 ;
+1 x64 -1 x65 +1 x76 >= 0 ;
+1 x64 -1 x66 +1 x77 >= 0 ;
+1 x64 -1 x67 +1 x78 >= 0 ;
+1 x64 -1 x68 +1 x79 >= 0 ;
+1 x64 -1 x69 +1 x80 >= 0 ;
+1 x65 -1 x66 +1 x81 >= 0 ;
+1 x65 -1 x67 +1 x82 >= 0 ;
+1 x65 -1 x68 +1 x83 >= 0 ;
+1 x65 -1 x69 +1 x84 >= 0 ;
+1 x66 -1 x67 +1 x85 >= 0 ;
+1 x66 -1 x68 +1 x86 >= 0 ;
+1 x66 -1 x69 +1 x87 >= 0 ;
+1 x67 -1 x68 +1 x88 >= 0 ;
+1 x67 -1 x69 +1 x89 >= 0 ;
+1 x68 -1 x69 +1 x90 >= 0 ;
+1 x70 -1 x71 +1 x76 >= 0 ;
+1 x70 -1 x72 +1 x77 >= 0 ;
+1 x70 -1 x73 +1 x78 >= 0 ;
+1 x70 -1 x74 +1 x79 >= 0 ;
+1 x70 -1 x75 +1 x80 >= 0 ;
+1 x71 -1 x72 +1 x81 >= 0 ;
+1 x71 -1 x73 +1 x82 >= 0 ;
+1 x71 -1 x74 +1 x83 >= 0 ;
+1 x71 -1 x75 +1 x84 >= 0 ;
+1 x72 -1 x73 +1 x85 >= 0 ;
+1 x72 -1 x74 +1 x86 >= 0 ;
+1 x72 -1 x75 +1 x87 >= 0 ;
+1 x73 -1 x74 +1 x88 >= 0 ;
+1 x73 -1 x75 +1 x89 >= 0 ;
+1 x74 -1 x75 +1 x90 >= 0 ;
+1 x76 -1 x77 +1 x81 >= 0 ;
+1 x76 -1 x78 +1 x82 >= 0 ;
+1 x76 -1 x79 +1 x83 >= 0 ;
+1 x76 -1 x80 +1 x84 >= 0 ;
+1 x77 -1 x78 +1 x85 >= 0 ;
+1 x77 -1 x79 +1 x86 >= 0 ;
+1 x77 -1 x80 +1 x87 >= 0 ;
+1 x78 -1 x79 +1 x88 >= 0 ;
+1 x78 -1 x80 +1 x89 >= 0 ;
+1 x79 -1 x80 +1 x90 >= 0 ;
+1 x81 -1 x82 +1 x85 >= 0 ;
+1 x81 -1 x83 +1 x86 >= 0 ;
+1 x81 -1 x84 +1 x87 >= 0 ;
+1 x82 -1 x83 +1 x88 >= 0 ;
+1 x82 -1 x84 +1 x89 >= 0 ;
+1 x83 -1 x84 +1 x90 >= 0 ;
+1 x85 -1 x86 +1 x88 >= 0 ;
+1 x85 -1 x87 +1 x89 >= 0 ;
+1 x86 -1 x87 +1 x90 >= 0 ;
+1 x88 -1 x89 +1 x90 >= 0 ;
+1 x91 = 1 ;
